9
8
0 1 10 19 28 37 46 55
8
0 2 11 20 29 38 47 56
8
0 3 12 21 30 39 48 57
8
0 4 13 22 31 40 49 58
8
0 5 14 23 32 41 50 59
7
0 6 15 24 33 42 51
7
0 7 16 25 34 43 52
7
0 8 17 26 35 44 53
7
0 9 18 27 36 45 54
